
Gurobi 6.5.0 (mac64) logging started Mon May 16 14:54:12 2016

Changed value of parameter MIPFocus to 2
   Prev: 0  Min: 0  Max: 3  Default: 0
Optimize a model with 15 rows, 50 columns and 100 nonzeros
Coefficient statistics:
  Matrix range    [1e+00, 1e+00]
  Objective range [9e-04, 2e+00]
  Bounds range    [0e+00, 0e+00]
  RHS range       [1e+01, 2e+02]
Presolve time: 0.01s
Presolved: 15 rows, 50 columns, 100 nonzeros

Iteration    Objective       Primal Inf.    Dual Inf.      Time
       0    0.0000000e+00   3.930000e+02   0.000000e+00      0s
      11    1.5386034e+02   0.000000e+00   0.000000e+00      0s

Solved in 11 iterations and 0.02 seconds
Optimal objective  1.538603435e+02

Gurobi 6.5.0 (mac64) logging started Mon May 16 16:08:06 2016

Changed value of parameter MIPFocus to 2
   Prev: 0  Min: 0  Max: 3  Default: 0
Optimize a model with 15 rows, 50 columns and 100 nonzeros
Coefficient statistics:
  Matrix range    [1e+00, 1e+00]
  Objective range [6e-02, 2e+01]
  Bounds range    [0e+00, 0e+00]
  RHS range       [1e+01, 2e+02]
Presolve time: 0.00s
Presolved: 15 rows, 50 columns, 100 nonzeros

Iteration    Objective       Primal Inf.    Dual Inf.      Time
       0    0.0000000e+00   3.930000e+02   0.000000e+00      0s
      16    9.4285245e-01   0.000000e+00   0.000000e+00      0s

Solved in 16 iterations and 0.01 seconds
Optimal objective  9.428524486e-01
Parameter MIPFocus unchanged
   Value: 2  Min: 0  Max: 3  Default: 0
Optimize a model with 15 rows, 50 columns and 100 nonzeros
Coefficient statistics:
  Matrix range    [1e+00, 1e+00]
  Objective range [6e-02, 2e+01]
  Bounds range    [0e+00, 0e+00]
  RHS range       [1e+01, 2e+02]
Presolve time: 0.01s
Presolved: 15 rows, 50 columns, 100 nonzeros

Iteration    Objective       Primal Inf.    Dual Inf.      Time
       0    0.0000000e+00   3.930000e+02   0.000000e+00      0s
      16    9.4285245e-01   0.000000e+00   0.000000e+00      0s

Solved in 16 iterations and 0.01 seconds
Optimal objective  9.428524486e-01
Parameter MIPFocus unchanged
   Value: 2  Min: 0  Max: 3  Default: 0
Optimize a model with 15 rows, 50 columns and 100 nonzeros
Coefficient statistics:
  Matrix range    [1e+00, 1e+00]
  Objective range [6e-02, 2e+01]
  Bounds range    [0e+00, 0e+00]
  RHS range       [1e+01, 2e+02]
Presolve time: 0.01s
Presolved: 15 rows, 50 columns, 100 nonzeros

Iteration    Objective       Primal Inf.    Dual Inf.      Time
       0    0.0000000e+00   3.930000e+02   0.000000e+00      0s
      16    9.4285245e-01   0.000000e+00   0.000000e+00      0s

Solved in 16 iterations and 0.01 seconds
Optimal objective  9.428524486e-01
Parameter MIPFocus unchanged
   Value: 2  Min: 0  Max: 3  Default: 0
Optimize a model with 15 rows, 50 columns and 100 nonzeros
Coefficient statistics:
  Matrix range    [1e+00, 1e+00]
  Objective range [6e-02, 2e+01]
  Bounds range    [0e+00, 0e+00]
  RHS range       [1e+01, 2e+02]
Presolve time: 0.01s
Presolved: 15 rows, 50 columns, 100 nonzeros

Iteration    Objective       Primal Inf.    Dual Inf.      Time
       0    0.0000000e+00   3.930000e+02   0.000000e+00      0s
      16    9.4285245e-01   0.000000e+00   0.000000e+00      0s

Solved in 16 iterations and 0.01 seconds
Optimal objective  9.428524486e-01

Gurobi 6.5.0 (mac64) logging started Mon May 16 16:19:37 2016

Changed value of parameter MIPFocus to 2
   Prev: 0  Min: 0  Max: 3  Default: 0
Optimize a model with 15 rows, 50 columns and 100 nonzeros
Coefficient statistics:
  Matrix range    [1e+00, 1e+00]
  Objective range [6e-02, 2e+01]
  Bounds range    [0e+00, 0e+00]
  RHS range       [1e+01, 2e+02]
Presolve time: 0.00s
Presolved: 15 rows, 50 columns, 100 nonzeros

Iteration    Objective       Primal Inf.    Dual Inf.      Time
       0    0.0000000e+00   3.930000e+02   0.000000e+00      0s
      16    9.4285245e-01   0.000000e+00   0.000000e+00      0s

Solved in 16 iterations and 0.01 seconds
Optimal objective  9.428524486e-01
Parameter MIPFocus unchanged
   Value: 2  Min: 0  Max: 3  Default: 0
Optimize a model with 15 rows, 50 columns and 100 nonzeros
Coefficient statistics:
  Matrix range    [1e+00, 1e+00]
  Objective range [6e-02, 2e+01]
  Bounds range    [0e+00, 0e+00]
  RHS range       [1e+01, 2e+02]
Presolve time: 0.00s
Presolved: 15 rows, 50 columns, 100 nonzeros

Iteration    Objective       Primal Inf.    Dual Inf.      Time
       0    0.0000000e+00   3.930000e+02   0.000000e+00      0s
      16    9.4285245e-01   0.000000e+00   0.000000e+00      0s

Solved in 16 iterations and 0.01 seconds
Optimal objective  9.428524486e-01
Parameter MIPFocus unchanged
   Value: 2  Min: 0  Max: 3  Default: 0
Optimize a model with 15 rows, 50 columns and 100 nonzeros
Coefficient statistics:
  Matrix range    [1e+00, 1e+00]
  Objective range [6e-02, 2e+01]
  Bounds range    [0e+00, 0e+00]
  RHS range       [1e+01, 2e+02]
Presolve time: 0.01s
Presolved: 15 rows, 50 columns, 100 nonzeros

Iteration    Objective       Primal Inf.    Dual Inf.      Time
       0    0.0000000e+00   3.930000e+02   0.000000e+00      0s
      16    9.4285245e-01   0.000000e+00   0.000000e+00      0s

Solved in 16 iterations and 0.01 seconds
Optimal objective  9.428524486e-01
Parameter MIPFocus unchanged
   Value: 2  Min: 0  Max: 3  Default: 0
Optimize a model with 15 rows, 50 columns and 100 nonzeros
Coefficient statistics:
  Matrix range    [1e+00, 1e+00]
  Objective range [6e-02, 2e+01]
  Bounds range    [0e+00, 0e+00]
  RHS range       [1e+01, 2e+02]
Presolve time: 0.01s
Presolved: 15 rows, 50 columns, 100 nonzeros

Iteration    Objective       Primal Inf.    Dual Inf.      Time
       0    0.0000000e+00   3.930000e+02   0.000000e+00      0s
      16    9.4285245e-01   0.000000e+00   0.000000e+00      0s

Solved in 16 iterations and 0.01 seconds
Optimal objective  9.428524486e-01
Parameter MIPFocus unchanged
   Value: 2  Min: 0  Max: 3  Default: 0
Optimize a model with 15 rows, 50 columns and 100 nonzeros
Coefficient statistics:
  Matrix range    [1e+00, 1e+00]
  Objective range [6e-02, 2e+01]
  Bounds range    [0e+00, 0e+00]
  RHS range       [1e+01, 2e+02]
Presolve time: 0.00s
Presolved: 15 rows, 50 columns, 100 nonzeros

Iteration    Objective       Primal Inf.    Dual Inf.      Time
       0    0.0000000e+00   3.930000e+02   0.000000e+00      0s
      16    9.4285245e-01   0.000000e+00   0.000000e+00      0s

Solved in 16 iterations and 0.01 seconds
Optimal objective  9.428524486e-01
Parameter MIPFocus unchanged
   Value: 2  Min: 0  Max: 3  Default: 0
Optimize a model with 15 rows, 50 columns and 100 nonzeros
Coefficient statistics:
  Matrix range    [1e+00, 1e+00]
  Objective range [6e-02, 2e+01]
  Bounds range    [0e+00, 0e+00]
  RHS range       [1e+01, 2e+02]
Presolve time: 0.01s
Presolved: 15 rows, 50 columns, 100 nonzeros

Iteration    Objective       Primal Inf.    Dual Inf.      Time
       0    0.0000000e+00   3.930000e+02   0.000000e+00      0s
      16    9.4285245e-01   0.000000e+00   0.000000e+00      0s

Solved in 16 iterations and 0.01 seconds
Optimal objective  9.428524486e-01
Parameter MIPFocus unchanged
   Value: 2  Min: 0  Max: 3  Default: 0
Optimize a model with 15 rows, 50 columns and 100 nonzeros
Coefficient statistics:
  Matrix range    [1e+00, 1e+00]
  Objective range [6e-02, 2e+01]
  Bounds range    [0e+00, 0e+00]
  RHS range       [1e+01, 2e+02]
Presolve time: 0.00s
Presolved: 15 rows, 50 columns, 100 nonzeros

Iteration    Objective       Primal Inf.    Dual Inf.      Time
       0    0.0000000e+00   3.930000e+02   0.000000e+00      0s
      16    9.4285245e-01   0.000000e+00   0.000000e+00      0s

Solved in 16 iterations and 0.01 seconds
Optimal objective  9.428524486e-01
Parameter MIPFocus unchanged
   Value: 2  Min: 0  Max: 3  Default: 0
Optimize a model with 15 rows, 50 columns and 100 nonzeros
Coefficient statistics:
  Matrix range    [1e+00, 1e+00]
  Objective range [6e-02, 2e+01]
  Bounds range    [0e+00, 0e+00]
  RHS range       [1e+01, 2e+02]
Presolve time: 0.01s
Presolved: 15 rows, 50 columns, 100 nonzeros

Iteration    Objective       Primal Inf.    Dual Inf.      Time
       0    0.0000000e+00   3.930000e+02   0.000000e+00      0s
      16    9.4285245e-01   0.000000e+00   0.000000e+00      0s

Solved in 16 iterations and 0.01 seconds
Optimal objective  9.428524486e-01
Parameter MIPFocus unchanged
   Value: 2  Min: 0  Max: 3  Default: 0
Optimize a model with 15 rows, 50 columns and 100 nonzeros
Coefficient statistics:
  Matrix range    [1e+00, 1e+00]
  Objective range [6e-02, 2e+01]
  Bounds range    [0e+00, 0e+00]
  RHS range       [1e+01, 2e+02]
Presolve time: 0.01s
Presolved: 15 rows, 50 columns, 100 nonzeros

Iteration    Objective       Primal Inf.    Dual Inf.      Time
       0    0.0000000e+00   3.930000e+02   0.000000e+00      0s
      16    9.4285245e-01   0.000000e+00   0.000000e+00      0s

Solved in 16 iterations and 0.01 seconds
Optimal objective  9.428524486e-01

Gurobi 6.5.0 (mac64) logging started Mon May 16 16:28:02 2016

Changed value of parameter MIPFocus to 2
   Prev: 0  Min: 0  Max: 3  Default: 0
Optimize a model with 15 rows, 50 columns and 100 nonzeros
Coefficient statistics:
  Matrix range    [1e+00, 1e+00]
  Objective range [6e-02, 2e+01]
  Bounds range    [0e+00, 0e+00]
  RHS range       [1e+01, 2e+02]
Presolve time: 0.01s
Presolved: 15 rows, 50 columns, 100 nonzeros

Iteration    Objective       Primal Inf.    Dual Inf.      Time
       0    0.0000000e+00   3.930000e+02   0.000000e+00      0s
      16    9.4285245e-01   0.000000e+00   0.000000e+00      0s

Solved in 16 iterations and 0.01 seconds
Optimal objective  9.428524486e-01
Parameter MIPFocus unchanged
   Value: 2  Min: 0  Max: 3  Default: 0
Optimize a model with 15 rows, 50 columns and 100 nonzeros
Coefficient statistics:
  Matrix range    [1e+00, 1e+00]
  Objective range [6e-02, 2e+01]
  Bounds range    [0e+00, 0e+00]
  RHS range       [1e+01, 2e+02]
Presolve time: 0.00s
Presolved: 15 rows, 50 columns, 100 nonzeros

Iteration    Objective       Primal Inf.    Dual Inf.      Time
       0    0.0000000e+00   3.930000e+02   0.000000e+00      0s
      16    9.4285245e-01   0.000000e+00   0.000000e+00      0s

Solved in 16 iterations and 0.01 seconds
Optimal objective  9.428524486e-01
Parameter MIPFocus unchanged
   Value: 2  Min: 0  Max: 3  Default: 0
Optimize a model with 15 rows, 50 columns and 100 nonzeros
Coefficient statistics:
  Matrix range    [1e+00, 1e+00]
  Objective range [6e-02, 2e+01]
  Bounds range    [0e+00, 0e+00]
  RHS range       [1e+01, 2e+02]
Presolve time: 0.00s
Presolved: 15 rows, 50 columns, 100 nonzeros

Iteration    Objective       Primal Inf.    Dual Inf.      Time
       0    0.0000000e+00   3.930000e+02   0.000000e+00      0s
      16    9.4285245e-01   0.000000e+00   0.000000e+00      0s

Solved in 16 iterations and 0.01 seconds
Optimal objective  9.428524486e-01
Parameter MIPFocus unchanged
   Value: 2  Min: 0  Max: 3  Default: 0
Optimize a model with 15 rows, 50 columns and 100 nonzeros
Coefficient statistics:
  Matrix range    [1e+00, 1e+00]
  Objective range [6e-02, 2e+01]
  Bounds range    [0e+00, 0e+00]
  RHS range       [1e+01, 2e+02]
Presolve time: 0.00s
Presolved: 15 rows, 50 columns, 100 nonzeros

Iteration    Objective       Primal Inf.    Dual Inf.      Time
       0    0.0000000e+00   3.930000e+02   0.000000e+00      0s
      16    9.4285245e-01   0.000000e+00   0.000000e+00      0s

Solved in 16 iterations and 0.01 seconds
Optimal objective  9.428524486e-01

Gurobi 6.5.0 (mac64) logging started Mon May 16 16:51:41 2016

Changed value of parameter MIPFocus to 2
   Prev: 0  Min: 0  Max: 3  Default: 0
Optimize a model with 15 rows, 50 columns and 100 nonzeros
Coefficient statistics:
  Matrix range    [1e+00, 1e+00]
  Objective range [6e-02, 2e+01]
  Bounds range    [0e+00, 0e+00]
  RHS range       [1e+01, 2e+02]
Presolve time: 0.00s
Presolved: 15 rows, 50 columns, 100 nonzeros

Iteration    Objective       Primal Inf.    Dual Inf.      Time
       0    0.0000000e+00   3.930000e+02   0.000000e+00      0s
      16    9.4285245e-01   0.000000e+00   0.000000e+00      0s

Solved in 16 iterations and 0.01 seconds
Optimal objective  9.428524486e-01
Parameter MIPFocus unchanged
   Value: 2  Min: 0  Max: 3  Default: 0
Optimize a model with 15 rows, 50 columns and 100 nonzeros
Coefficient statistics:
  Matrix range    [1e+00, 1e+00]
  Objective range [6e-02, 2e+01]
  Bounds range    [0e+00, 0e+00]
  RHS range       [1e+01, 2e+02]
Presolve time: 0.01s
Presolved: 15 rows, 50 columns, 100 nonzeros

Iteration    Objective       Primal Inf.    Dual Inf.      Time
       0    0.0000000e+00   3.930000e+02   0.000000e+00      0s
      16    9.4285245e-01   0.000000e+00   0.000000e+00      0s

Solved in 16 iterations and 0.02 seconds
Optimal objective  9.428524486e-01
Parameter MIPFocus unchanged
   Value: 2  Min: 0  Max: 3  Default: 0
Optimize a model with 15 rows, 50 columns and 100 nonzeros
Coefficient statistics:
  Matrix range    [1e+00, 1e+00]
  Objective range [6e-02, 2e+01]
  Bounds range    [0e+00, 0e+00]
  RHS range       [1e+01, 2e+02]
Presolve time: 0.01s
Presolved: 15 rows, 50 columns, 100 nonzeros

Iteration    Objective       Primal Inf.    Dual Inf.      Time
       0    0.0000000e+00   3.930000e+02   0.000000e+00      0s
      16    9.4285245e-01   0.000000e+00   0.000000e+00      0s

Solved in 16 iterations and 0.02 seconds
Optimal objective  9.428524486e-01
Parameter MIPFocus unchanged
   Value: 2  Min: 0  Max: 3  Default: 0
Optimize a model with 15 rows, 50 columns and 100 nonzeros
Coefficient statistics:
  Matrix range    [1e+00, 1e+00]
  Objective range [6e-02, 2e+01]
  Bounds range    [0e+00, 0e+00]
  RHS range       [1e+01, 2e+02]
Presolve time: 0.01s
Presolved: 15 rows, 50 columns, 100 nonzeros

Iteration    Objective       Primal Inf.    Dual Inf.      Time
       0    0.0000000e+00   3.930000e+02   0.000000e+00      0s
      16    9.4285245e-01   0.000000e+00   0.000000e+00      0s

Solved in 16 iterations and 0.01 seconds
Optimal objective  9.428524486e-01
Parameter MIPFocus unchanged
   Value: 2  Min: 0  Max: 3  Default: 0
Optimize a model with 15 rows, 50 columns and 100 nonzeros
Coefficient statistics:
  Matrix range    [1e+00, 1e+00]
  Objective range [6e-02, 2e+01]
  Bounds range    [0e+00, 0e+00]
  RHS range       [1e+01, 2e+02]
Presolve time: 0.01s
Presolved: 15 rows, 50 columns, 100 nonzeros

Iteration    Objective       Primal Inf.    Dual Inf.      Time
       0    0.0000000e+00   3.930000e+02   0.000000e+00      0s
      16    9.4285245e-01   0.000000e+00   0.000000e+00      0s

Solved in 16 iterations and 0.02 seconds
Optimal objective  9.428524486e-01
Parameter MIPFocus unchanged
   Value: 2  Min: 0  Max: 3  Default: 0
Optimize a model with 15 rows, 50 columns and 100 nonzeros
Coefficient statistics:
  Matrix range    [1e+00, 1e+00]
  Objective range [6e-02, 2e+01]
  Bounds range    [0e+00, 0e+00]
  RHS range       [5e+01, 2e+02]
Presolve time: 0.00s
Presolved: 15 rows, 50 columns, 100 nonzeros

Iteration    Objective       Primal Inf.    Dual Inf.      Time
       0    0.0000000e+00   1.254000e+03   0.000000e+00      0s

Solved in 19 iterations and 0.01 seconds
Infeasible model

Gurobi 6.5.0 (mac64) logging started Tue May 17 11:57:47 2016

Changed value of parameter MIPFocus to 2
   Prev: 0  Min: 0  Max: 3  Default: 0
Optimize a model with 15 rows, 50 columns and 100 nonzeros
Coefficient statistics:
  Matrix range    [1e+00, 1e+00]
  Objective range [6e-02, 2e+01]
  Bounds range    [0e+00, 0e+00]
  RHS range       [5e+01, 2e+02]
Presolve time: 0.01s
Presolved: 15 rows, 50 columns, 100 nonzeros

Iteration    Objective       Primal Inf.    Dual Inf.      Time
       0    0.0000000e+00   1.193000e+03   0.000000e+00      0s

Solved in 20 iterations and 0.01 seconds
Infeasible model
Parameter MIPFocus unchanged
   Value: 2  Min: 0  Max: 3  Default: 0
Optimize a model with 15 rows, 50 columns and 100 nonzeros
Coefficient statistics:
  Matrix range    [1e+00, 1e+00]
  Objective range [6e-02, 2e+01]
  Bounds range    [0e+00, 0e+00]
  RHS range       [5e+01, 2e+02]
Presolve time: 0.00s
Presolved: 15 rows, 50 columns, 100 nonzeros

Iteration    Objective       Primal Inf.    Dual Inf.      Time
       0    0.0000000e+00   8.110000e+02   0.000000e+00      0s

Solved in 20 iterations and 0.01 seconds
Infeasible model
Parameter MIPFocus unchanged
   Value: 2  Min: 0  Max: 3  Default: 0
Optimize a model with 15 rows, 50 columns and 100 nonzeros
Coefficient statistics:
  Matrix range    [1e+00, 1e+00]
  Objective range [6e-02, 2e+01]
  Bounds range    [0e+00, 0e+00]
  RHS range       [2e+01, 2e+02]
Presolve time: 0.00s
Presolved: 15 rows, 50 columns, 100 nonzeros

Iteration    Objective       Primal Inf.    Dual Inf.      Time
       0    0.0000000e+00   6.230000e+02   0.000000e+00      0s

Solved in 24 iterations and 0.01 seconds
Infeasible model
Parameter MIPFocus unchanged
   Value: 2  Min: 0  Max: 3  Default: 0
Optimize a model with 15 rows, 50 columns and 100 nonzeros
Coefficient statistics:
  Matrix range    [1e+00, 1e+00]
  Objective range [6e-02, 2e+01]
  Bounds range    [0e+00, 0e+00]
  RHS range       [2e+01, 2e+02]
Presolve time: 0.01s
Presolved: 15 rows, 50 columns, 100 nonzeros

Iteration    Objective       Primal Inf.    Dual Inf.      Time
       0    0.0000000e+00   6.230000e+02   0.000000e+00      0s

Solved in 24 iterations and 0.01 seconds
Infeasible model

Gurobi 6.5.0 (mac64) logging started Tue May 17 11:59:23 2016

Changed value of parameter MIPFocus to 2
   Prev: 0  Min: 0  Max: 3  Default: 0
Optimize a model with 15 rows, 50 columns and 100 nonzeros
Coefficient statistics:
  Matrix range    [1e+00, 1e+00]
  Objective range [6e-02, 2e+01]
  Bounds range    [0e+00, 0e+00]
  RHS range       [1e+01, 2e+02]
Presolve time: 0.01s
Presolved: 15 rows, 50 columns, 100 nonzeros

Iteration    Objective       Primal Inf.    Dual Inf.      Time
       0    0.0000000e+00   3.930000e+02   0.000000e+00      0s
      16    9.4285245e-01   0.000000e+00   0.000000e+00      0s

Solved in 16 iterations and 0.01 seconds
Optimal objective  9.428524486e-01

Gurobi 6.5.0 (mac64) logging started Tue May 17 12:17:30 2016

Changed value of parameter MIPFocus to 2
   Prev: 0  Min: 0  Max: 3  Default: 0
Optimize a model with 15 rows, 50 columns and 100 nonzeros
Coefficient statistics:
  Matrix range    [1e+00, 1e+00]
  Objective range [6e-02, 2e+01]
  Bounds range    [0e+00, 0e+00]
  RHS range       [1e+01, 2e+02]
Presolve time: 0.00s
Presolved: 15 rows, 50 columns, 100 nonzeros

Iteration    Objective       Primal Inf.    Dual Inf.      Time
       0    0.0000000e+00   3.930000e+02   0.000000e+00      0s
      16    9.4285245e-01   0.000000e+00   0.000000e+00      0s

Solved in 16 iterations and 0.01 seconds
Optimal objective  9.428524486e-01

Gurobi 6.5.0 (mac64) logging started Tue May 17 12:24:57 2016

Changed value of parameter MIPFocus to 2
   Prev: 0  Min: 0  Max: 3  Default: 0
Optimize a model with 15 rows, 50 columns and 100 nonzeros
Coefficient statistics:
  Matrix range    [1e+00, 1e+00]
  Objective range [6e-02, 2e+01]
  Bounds range    [0e+00, 0e+00]
  RHS range       [1e+01, 2e+02]
Presolve time: 0.00s
Presolved: 15 rows, 50 columns, 100 nonzeros

Iteration    Objective       Primal Inf.    Dual Inf.      Time
       0    0.0000000e+00   3.930000e+02   0.000000e+00      0s
      16    9.4285245e-01   0.000000e+00   0.000000e+00      0s

Solved in 16 iterations and 0.01 seconds
Optimal objective  9.428524486e-01

Gurobi 6.5.0 (mac64) logging started Tue May 17 12:39:57 2016

Changed value of parameter MIPFocus to 2
   Prev: 0  Min: 0  Max: 3  Default: 0
Optimize a model with 15 rows, 50 columns and 100 nonzeros
Coefficient statistics:
  Matrix range    [1e+00, 1e+00]
  Objective range [6e-02, 2e+01]
  Bounds range    [0e+00, 0e+00]
  RHS range       [1e+01, 2e+02]
Presolve time: 0.00s
Presolved: 15 rows, 50 columns, 100 nonzeros

Iteration    Objective       Primal Inf.    Dual Inf.      Time
       0    0.0000000e+00   3.930000e+02   0.000000e+00      0s
      16    9.4285245e-01   0.000000e+00   0.000000e+00      0s

Solved in 16 iterations and 0.01 seconds
Optimal objective  9.428524486e-01

Gurobi 6.5.0 (mac64) logging started Tue May 17 17:33:17 2016

Changed value of parameter MIPFocus to 2
   Prev: 0  Min: 0  Max: 3  Default: 0
Optimize a model with 15 rows, 50 columns and 100 nonzeros
Coefficient statistics:
  Matrix range    [1e+00, 1e+00]
  Objective range [6e-02, 2e+01]
  Bounds range    [0e+00, 0e+00]
  RHS range       [1e+01, 2e+02]
Presolve time: 0.00s
Presolved: 15 rows, 50 columns, 100 nonzeros

Iteration    Objective       Primal Inf.    Dual Inf.      Time
       0    0.0000000e+00   3.930000e+02   0.000000e+00      0s
      16    9.4285245e-01   0.000000e+00   0.000000e+00      0s

Solved in 16 iterations and 0.01 seconds
Optimal objective  9.428524486e-01
